h=9;
w=9;
s=3;
b=[|0,9,7,0,5,6,2,3,8|5,6,2,3,0,0,0,0,0|1,8,3,0,7,0,5,9,0|9,0,8,5,6,0,0,0,0|0,0,5,9,3,0,7,8,4|3,7,1,4,0,2,6,0,0|7,0,0,0,2,9,3,6,5|8,5,0,7,1,0,0,0,0|2,3,9,6,4,5,8,0,7|];
t=[|0,1,1,1,1,0,0,1,0|1,0,0,1,1,0,0,1,1|1,0,1,0,1,0,1,1,0|1,0,0,1,0,1,1,0,1|0,0,1,1,1,1,1,0,0|1,1,1,0,0,0,0,1,1|1,1,0,0,0,1,1,0,1|0,1,0,1,1,1,1,0,0|0,1,1,0,0,1,0,1,1|];
